(set-logic QF_UF)
(declare-fun A0 () Bool)
(declare-fun A1 () Bool)
(declare-fun A2 () Bool)
(declare-fun A3 () Bool)
(declare-fun A4 () Bool)
(declare-fun A6 () Bool)
(declare-fun A7 () Bool)
(declare-fun A8 () Bool)
(declare-fun A9 () Bool)
(declare-fun A10 () Bool)
(declare-fun A11 () Bool)
(declare-fun A12 () Bool)
(declare-fun A13 () Bool)
(declare-fun A14 () Bool)
(declare-fun A15 () Bool)
(declare-fun A16 () Bool)
(declare-fun A17 () Bool)
(declare-fun A18 () Bool)
(declare-fun A19 () Bool)
(declare-fun A20 () Bool)
(declare-fun A21 () Bool)
(declare-fun A22 () Bool)
(declare-fun A23 () Bool)
(declare-fun A24 () Bool)
(declare-fun A25 () Bool)
(declare-fun A26 () Bool)
(declare-fun A27 () Bool)
(declare-fun A28 () Bool)
(declare-fun A29 () Bool)
(assert (let ((.def_0 (or A18 A28))) (let ((.def_1 (not A14))) (let ((.def_2 (and A20 .def_1))) (let ((.def_3 (and .def_2 .def_0))) (let ((.def_4 (not .def_3))) (let ((.def_5 (not A9))) (let ((.def_6 (and .def_5 A24))) (let ((.def_7 (or A22 A14))) (let ((.def_8 (= .def_7 .def_6))) (let ((.def_9 (not .def_8))) (let ((.def_10 (and .def_9 .def_4))) (let ((.def_11 (not .def_10))) (let ((.def_12 (or A15 A18))) (let ((.def_13 (not .def_12))) (let ((.def_14 (not A27))) (let ((.def_15 (or A10 .def_14))) (let ((.def_16 (and .def_15 .def_13))) (let ((.def_17 (not .def_16))) (let ((.def_18 (or A10 A23))) (let ((.def_19 (not .def_18))) (let ((.def_20 (and A3 A11))) (let ((.def_21 (= .def_20 .def_19))) (let ((.def_22 (or .def_21 .def_17))) (let ((.def_23 (and .def_22 .def_11))) (let ((.def_24 (or A11 A26))) (let ((.def_25 (not A28))) (let ((.def_26 (not A16))) (let ((.def_27 (and .def_26 .def_25))) (let ((.def_28 (not .def_27))) (let ((.def_29 (or .def_28 .def_24))) (let ((.def_30 (not A25))) (let ((.def_31 (or A14 .def_30))) (let ((.def_32 (not .def_31))) (let ((.def_33 (or A2 A1))) (let ((.def_34 (or .def_33 .def_32))) (let ((.def_35 (and .def_34 .def_29))) (let ((.def_36 (not .def_35))) (let ((.def_37 (not A17))) (let ((.def_38 (not A15))) (let ((.def_39 (or .def_38 .def_37))) (let ((.def_40 (not .def_39))) (let ((.def_41 (not A29))) (let ((.def_42 (= A12 .def_41))) (let ((.def_43 (not .def_42))) (let ((.def_44 (and .def_43 .def_40))) (let ((.def_45 (not A7))) (let ((.def_46 (and A28 .def_45))) (let ((.def_47 (not .def_46))) (let ((.def_48 (not A8))) (let ((.def_49 (and A19 .def_48))) (let ((.def_50 (or .def_49 .def_47))) (let ((.def_51 (or .def_50 .def_44))) (let ((.def_52 (not .def_51))) (let ((.def_53 (or .def_52 .def_36))) (let ((.def_54 (not .def_53))) (let ((.def_55 (and .def_54 .def_23))) (let ((.def_56 (not .def_55))) (let ((.def_57 (not A4))) (let ((.def_58 (or .def_57 A20))) (let ((.def_59 (not A19))) (let ((.def_60 (and .def_59 A2))) (let ((.def_61 (not .def_60))) (let ((.def_62 (and .def_61 .def_58))) (let ((.def_63 (not .def_62))) (let ((.def_64 (and A11 A11))) (let ((.def_65 (= .def_30 .def_38))) (let ((.def_66 (not .def_65))) (let ((.def_67 (and .def_66 .def_64))) (let ((.def_68 (or .def_67 .def_63))) (let ((.def_69 (not .def_68))) (let ((.def_70 (not A21))) (let ((.def_71 (or A1 .def_70))) (let ((.def_72 (or .def_30 A0))) (let ((.def_73 (not .def_72))) (let ((.def_74 (or .def_73 .def_71))) (let ((.def_75 (not .def_74))) (let ((.def_76 (or A12 A12))) (let ((.def_77 (not A23))) (let ((.def_78 (and .def_77 .def_38))) (let ((.def_79 (and .def_78 .def_76))) (let ((.def_80 (and .def_79 .def_75))) (let ((.def_81 (and .def_80 .def_69))) (let ((.def_82 (not .def_81))) (let ((.def_83 (or A16 .def_26))) (let ((.def_84 (and .def_37 A14))) (let ((.def_85 (or .def_84 .def_83))) (let ((.def_86 (not .def_85))) (let ((.def_87 (not A24))) (let ((.def_88 (or A24 .def_87))) (let ((.def_89 (not A13))) (let ((.def_90 (or A14 .def_89))) (let ((.def_91 (not .def_90))) (let ((.def_92 (or .def_91 .def_88))) (let ((.def_93 (and .def_92 .def_86))) (let ((.def_94 (not A1))) (let ((.def_95 (or .def_94 A26))) (let ((.def_96 (not .def_95))) (let ((.def_97 (not A10))) (let ((.def_98 (or .def_97 .def_77))) (let ((.def_99 (or .def_98 .def_96))) (let ((.def_100 (and A21 A15))) (let ((.def_101 (and A13 A6))) (let ((.def_102 (not .def_101))) (let ((.def_103 (= .def_102 .def_100))) (let ((.def_104 (and .def_103 .def_99))) (let ((.def_105 (and .def_104 .def_93))) (let ((.def_106 (not .def_105))) (let ((.def_107 (and .def_106 .def_82))) (let ((.def_108 (not .def_107))) (let ((.def_109 (or .def_108 .def_56))) (let ((.def_110 (not .def_109))) .def_110))))))))))))))))))))))))))))))))))))))))))))))))))))))))))))))))))))))))))))))))))))))))))))))))))))))))))))))))
(check-sat)
